data/lp_files/pEFS/59_7.lp
\ Model foo
\ LP format - for model browsing. Use MPS format to capture full model detail.
Minimize
  z
Subject To
 allocateEach[1]: x[1,1] + x[2,1] + x[3,1] = 1
 allocateEach[2]: x[1,2] + x[2,2] + x[3,2] = 1
 allocateEach[3]: x[1,3] + x[2,3] + x[3,3] = 1
 allocateEach[4]: x[1,4] + x[2,4] + x[3,4] = 1
 allocateEach[5]: x[1,5] + x[2,5] + x[3,5] = 1
 allocateEach[6]: x[1,6] + x[2,6] + x[3,6] = 1
 allocateEach[7]: x[1,7] + x[2,7] + x[3,7] = 1
 allocateEach[8]: x[1,8] + x[2,8] + x[3,8] = 1
 allocateEach[9]: x[1,9] + x[2,9] + x[3,9] = 1
 allocateEach[10]: x[1,10] + x[2,10] + x[3,10] = 1
 allocateEach[11]: x[1,11] + x[2,11] + x[3,11] = 1
 allocateEach[12]: x[1,12] + x[2,12] + x[3,12] = 1
 allocateEach[13]: x[1,13] + x[2,13] + x[3,13] = 1
 allocateEach[14]: x[1,14] + x[2,14] + x[3,14] = 1
 allocateEach[15]: x[1,15] + x[2,15] + x[3,15] = 1
 allocateEach[16]: x[1,16] + x[2,16] + x[3,16] = 1
 allocateEach[17]: x[1,17] + x[2,17] + x[3,17] = 1
 allocateEach[18]: x[1,18] + x[2,18] + x[3,18] = 1
 allocateEach[19]: x[1,19] + x[2,19] + x[3,19] = 1
 allocateAllCash: cashProportion[1] + cashProportion[2] + cashProportion[3]
   = 1
 findWorstP[1,2]: z + 0.0540676927513247 cashProportion[1]
   - 0.0540676927513247 cashProportion[2] + 0.0848322099268284 x[1,1]
   + 0.0876347186677721 x[1,2] + 0.0226994196734311 x[1,3]
   + 0.0590419204844465 x[1,4] + 0.0160040370543921 x[1,5]
   + 0.0819305770825073 x[1,6] + 0.0647821071982122 x[1,7]
   + 0.0718109072558844 x[1,8] + 0.00149587283278665 x[1,9]
   + 0.0709638467361136 x[1,10] + 0.00440651695923296 x[1,11]
   + 0.0809663698951087 x[1,12] + 0.000189237 x[1,13]
   + 0.0308366074325055 x[1,14] + 0.05897884150957 x[1,15]
   + 0.0272771509930433 x[1,16] + 0.023834841221209 x[1,17]
   + 0.0850394694157085 x[1,18] + 0.0732076559852936 x[1,19]
   - 0.0848322099268284 x[2,1] - 0.0876347186677721 x[2,2]
   - 0.0226994196734311 x[2,3] - 0.0590419204844465 x[2,4]
   - 0.0160040370543921 x[2,5] - 0.0819305770825073 x[2,6]
   - 0.0647821071982122 x[2,7] - 0.0718109072558844 x[2,8]
   - 0.00149587283278665 x[2,9] - 0.0709638467361136 x[2,10]
   - 0.00440651695923296 x[2,11] - 0.0809663698951087 x[2,12]
   - 0.000189237 x[2,13] - 0.0308366074325055 x[2,14]
   - 0.05897884150957 x[2,15] - 0.0272771509930433 x[2,16]
   - 0.023834841221209 x[2,17] - 0.0850394694157085 x[2,18]
   - 0.0732076559852936 x[2,19] >= 0
 findWorstP[1,3]: z + 0.0540676927513247 cashProportion[1]
   - 0.0540676927513247 cashProportion[3] + 0.0848322099268284 x[1,1]
   + 0.0876347186677721 x[1,2] + 0.0226994196734311 x[1,3]
   + 0.0590419204844465 x[1,4] + 0.0160040370543921 x[1,5]
   + 0.0819305770825073 x[1,6] + 0.0647821071982122 x[1,7]
   + 0.0718109072558844 x[1,8] + 0.00149587283278665 x[1,9]
   + 0.0709638467361136 x[1,10] + 0.00440651695923296 x[1,11]
   + 0.0809663698951087 x[1,12] + 0.000189237 x[1,13]
   + 0.0308366074325055 x[1,14] + 0.05897884150957 x[1,15]
   + 0.0272771509930433 x[1,16] + 0.023834841221209 x[1,17]
   + 0.0850394694157085 x[1,18] + 0.0732076559852936 x[1,19]
   - 0.0848322099268284 x[3,1] - 0.0876347186677721 x[3,2]
   - 0.0226994196734311 x[3,3] - 0.0590419204844465 x[3,4]
   - 0.0160040370543921 x[3,5] - 0.0819305770825073 x[3,6]
   - 0.0647821071982122 x[3,7] - 0.0718109072558844 x[3,8]
   - 0.00149587283278665 x[3,9] - 0.0709638467361136 x[3,10]
   - 0.00440651695923296 x[3,11] - 0.0809663698951087 x[3,12]
   - 0.000189237 x[3,13] - 0.0308366074325055 x[3,14]
   - 0.05897884150957 x[3,15] - 0.0272771509930433 x[3,16]
   - 0.023834841221209 x[3,17] - 0.0850394694157085 x[3,18]
   - 0.0732076559852936 x[3,19] >= 0
 findWorstP[2,1]: z - 0.0778634275480807 cashProportion[1]
   + 0.0778634275480807 cashProportion[2] - 0.00611227906252433 x[1,1]
   - 0.00376339899815723 x[1,2] - 0.1047911962417919 x[1,3]
   - 0.121298242881985 x[1,4] - 0.0471333281424382 x[1,5]
   - 0.0618884476627994 x[1,6] - 0.0811466687430247 x[1,7]
   - 0.0180643151911547 x[1,8] - 0.0958888110254613 x[1,9]
   - 0.0129902151626048 x[1,10] - 0.0295491707544966 x[1,11]
   - 0.00786420618235615 x[1,12] - 0.0227620753198889 x[1,13]
   - 0.0847543408860858 x[1,14] - 0.0461859897739365 x[1,15]
   - 0.0178177476705858 x[1,16] - 0.0552181473695139 x[1,17]
   - 0.0806016247501882 x[1,18] - 0.0243063666329258 x[1,19]
   + 0.00611227906252433 x[2,1] + 0.00376339899815723 x[2,2]
   + 0.1047911962417919 x[2,3] + 0.121298242881985 x[2,4]
   + 0.0471333281424382 x[2,5] + 0.0618884476627994 x[2,6]
   + 0.0811466687430247 x[2,7] + 0.0180643151911547 x[2,8]
   + 0.0958888110254613 x[2,9] + 0.0129902151626048 x[2,10]
   + 0.0295491707544966 x[2,11] + 0.00786420618235615 x[2,12]
   + 0.0227620753198889 x[2,13] + 0.0847543408860858 x[2,14]
   + 0.0461859897739365 x[2,15] + 0.0178177476705858 x[2,16]
   + 0.0552181473695139 x[2,17] + 0.0806016247501882 x[2,18]
   + 0.0243063666329258 x[2,19] >= 0
 findWorstP[2,3]: z + 0.0778634275480807 cashProportion[2]
   - 0.0778634275480807 cashProportion[3] + 0.00611227906252433 x[2,1]
   + 0.00376339899815723 x[2,2] + 0.1047911962417919 x[2,3]
   + 0.121298242881985 x[2,4] + 0.0471333281424382 x[2,5]
   + 0.0618884476627994 x[2,6] + 0.0811466687430247 x[2,7]
   + 0.0180643151911547 x[2,8] + 0.0958888110254613 x[2,9]
   + 0.0129902151626048 x[2,10] + 0.0295491707544966 x[2,11]
   + 0.00786420618235615 x[2,12] + 0.0227620753198889 x[2,13]
   + 0.0847543408860858 x[2,14] + 0.0461859897739365 x[2,15]
   + 0.0178177476705858 x[2,16] + 0.0552181473695139 x[2,17]
   + 0.0806016247501882 x[2,18] + 0.0243063666329258 x[2,19]
   - 0.00611227906252433 x[3,1] - 0.00376339899815723 x[3,2]
   - 0.1047911962417919 x[3,3] - 0.121298242881985 x[3,4]
   - 0.0471333281424382 x[3,5] - 0.0618884476627994 x[3,6]
   - 0.0811466687430247 x[3,7] - 0.0180643151911547 x[3,8]
   - 0.0958888110254613 x[3,9] - 0.0129902151626048 x[3,10]
   - 0.0295491707544966 x[3,11] - 0.00786420618235615 x[3,12]
   - 0.0227620753198889 x[3,13] - 0.0847543408860858 x[3,14]
   - 0.0461859897739365 x[3,15] - 0.0178177476705858 x[3,16]
   - 0.0552181473695139 x[3,17] - 0.0806016247501882 x[3,18]
   - 0.0243063666329258 x[3,19] >= 0
 findWorstP[3,1]: z - 0.0432891062964005 cashProportion[1]
   + 0.0432891062964005 cashProportion[3] - 0.0292634358563668 x[1,1]
   - 0.0201943680872708 x[1,2] - 0.00469686803315946 x[1,3]
   - 0.0581516994581647 x[1,4] - 0.051196583046543 x[1,5]
   - 0.0592122825624265 x[1,6] - 0.0472717040756694 x[1,7]
   - 0.0543061838488345 x[1,8] - 0.0597822557953291 x[1,9]
   - 0.0386210976674387 x[1,10] - 0.0416296905550385 x[1,11]
   - 0.0634834743836714 x[1,12] - 0.0688657532665238 x[1,13]
   - 0.067444427609792 x[1,14] - 0.0688657532665238 x[1,15]
   - 0.0686493077350418 x[1,16] - 0.0397321847290463 x[1,17]
   - 0.0669538177384328 x[1,18] - 0.0483900059883264 x[1,19]
   + 0.0292634358563668 x[3,1] + 0.0201943680872708 x[3,2]
   + 0.00469686803315946 x[3,3] + 0.0581516994581647 x[3,4]
   + 0.051196583046543 x[3,5] + 0.0592122825624265 x[3,6]
   + 0.0472717040756694 x[3,7] + 0.0543061838488345 x[3,8]
   + 0.0597822557953291 x[3,9] + 0.0386210976674387 x[3,10]
   + 0.0416296905550385 x[3,11] + 0.0634834743836714 x[3,12]
   + 0.0688657532665238 x[3,13] + 0.067444427609792 x[3,14]
   + 0.0688657532665238 x[3,15] + 0.0686493077350418 x[3,16]
   + 0.0397321847290463 x[3,17] + 0.0669538177384328 x[3,18]
   + 0.0483900059883264 x[3,19] >= 0
 findWorstP[3,2]: z - 0.0432891062964005 cashProportion[2]
   + 0.0432891062964005 cashProportion[3] - 0.0292634358563668 x[2,1]
   - 0.0201943680872708 x[2,2] - 0.00469686803315946 x[2,3]
   - 0.0581516994581647 x[2,4] - 0.051196583046543 x[2,5]
   - 0.0592122825624265 x[2,6] - 0.0472717040756694 x[2,7]
   - 0.0543061838488345 x[2,8] - 0.0597822557953291 x[2,9]
   - 0.0386210976674387 x[2,10] - 0.0416296905550385 x[2,11]
   - 0.0634834743836714 x[2,12] - 0.0688657532665238 x[2,13]
   - 0.067444427609792 x[2,14] - 0.0688657532665238 x[2,15]
   - 0.0686493077350418 x[2,16] - 0.0397321847290463 x[2,17]
   - 0.0669538177384328 x[2,18] - 0.0483900059883264 x[2,19]
   + 0.0292634358563668 x[3,1] + 0.0201943680872708 x[3,2]
   + 0.00469686803315946 x[3,3] + 0.0581516994581647 x[3,4]
   + 0.051196583046543 x[3,5] + 0.0592122825624265 x[3,6]
   + 0.0472717040756694 x[3,7] + 0.0543061838488345 x[3,8]
   + 0.0597822557953291 x[3,9] + 0.0386210976674387 x[3,10]
   + 0.0416296905550385 x[3,11] + 0.0634834743836714 x[3,12]
   + 0.0688657532665238 x[3,13] + 0.067444427609792 x[3,14]
   + 0.0688657532665238 x[3,15] + 0.0686493077350418 x[3,16]
   + 0.0397321847290463 x[3,17] + 0.0669538177384328 x[3,18]
   + 0.0483900059883264 x[3,19] >= 0
Bounds
 z <= 1
 -infinity <= cashProportion[1] <= 1
 -infinity <= cashProportion[2] <= 1
 -infinity <= cashProportion[3] <= 1
Binaries
 x[1,1] x[1,2] x[1,3] x[1,4] x[1,5] x[1,6] x[1,7] x[1,8] x[1,9] x[1,10]
 x[1,11] x[1,12] x[1,13] x[1,14] x[1,15] x[1,16] x[1,17] x[1,18] x[1,19]
 x[2,1] x[2,2] x[2,3] x[2,4] x[2,5] x[2,6] x[2,7] x[2,8] x[2,9] x[2,10]
 x[2,11] x[2,12] x[2,13] x[2,14] x[2,15] x[2,16] x[2,17] x[2,18] x[2,19]
 x[3,1] x[3,2] x[3,3] x[3,4] x[3,5] x[3,6] x[3,7] x[3,8] x[3,9] x[3,10]
 x[3,11] x[3,12] x[3,13] x[3,14] x[3,15] x[3,16] x[3,17] x[3,18] x[3,19]
End
