data/mps_files/q3/59_7.mps
NAME foo
ROWS
 N  OBJ
 E  allocateEach[1]
 E  allocateEach[2]
 E  allocateEach[3]
 E  allocateEach[4]
 E  allocateEach[5]
 E  allocateEach[6]
 E  allocateEach[7]
 E  allocateEach[8]
 E  allocateEach[9]
 E  allocateEach[10]
 E  allocateEach[11]
 E  allocateEach[12]
 E  allocateEach[13]
 E  allocateEach[14]
 E  allocateEach[15]
 E  allocateEach[16]
 E  allocateEach[17]
 E  allocateEach[18]
 E  allocateEach[19]
 E  allocateAllCash
 G  findWorstP[1,2]
 G  findWorstP[1,3]
 G  findWorstP[2,1]
 G  findWorstP[2,3]
 G  findWorstP[3,1]
 G  findWorstP[3,2]
COLUMNS
    z         OBJ       1
    z         findWorstP[1,2]  1
    z         findWorstP[1,3]  1
    z         findWorstP[2,1]  1
    z         findWorstP[2,3]  1
    z         findWorstP[3,1]  1
    z         findWorstP[3,2]  1
    cashProportion[1]  allocateAllCash  1
    cashProportion[1]  findWorstP[1,2]  5.4067692751324677e-02
    cashProportion[1]  findWorstP[1,3]  5.4067692751324677e-02
    cashProportion[1]  findWorstP[2,1]  -7.7863427548080677e-02
    cashProportion[1]  findWorstP[3,1]  -4.3289106296400530e-02
    cashProportion[2]  allocateAllCash  1
    cashProportion[2]  findWorstP[1,2]  -5.4067692751324677e-02
    cashProportion[2]  findWorstP[2,1]  7.7863427548080677e-02
    cashProportion[2]  findWorstP[2,3]  7.7863427548080677e-02
    cashProportion[2]  findWorstP[3,2]  -4.3289106296400530e-02
    cashProportion[3]  allocateAllCash  1
    cashProportion[3]  findWorstP[1,3]  -5.4067692751324677e-02
    cashProportion[3]  findWorstP[2,3]  -7.7863427548080677e-02
    cashProportion[3]  findWorstP[3,1]  4.3289106296400530e-02
    cashProportion[3]  findWorstP[3,2]  4.3289106296400530e-02
    MARKER    'MARKER'                 'INTORG'
    x[1,1]    allocateEach[1]  1
    x[1,1]    findWorstP[1,2]  0.0848322099268284
    x[1,1]    findWorstP[1,3]  0.0848322099268284
    x[1,1]    findWorstP[2,1]  -6.1122790625243320e-03
    x[1,1]    findWorstP[3,1]  -2.9263435856366753e-02
    x[1,2]    allocateEach[2]  1
    x[1,2]    findWorstP[1,2]  8.7634718667772060e-02
    x[1,2]    findWorstP[1,3]  8.7634718667772060e-02
    x[1,2]    findWorstP[2,1]  -3.7633989981572320e-03
    x[1,2]    findWorstP[3,1]  -2.0194368087270841e-02
    x[1,3]    allocateEach[3]  1
    x[1,3]    findWorstP[1,2]  2.2699419673431139e-02
    x[1,3]    findWorstP[1,3]  2.2699419673431139e-02
    x[1,3]    findWorstP[2,1]  -1.0479119624179188e-01
    x[1,3]    findWorstP[3,1]  -4.6968680331594568e-03
    x[1,4]    allocateEach[4]  1
    x[1,4]    findWorstP[1,2]  5.9041920484446536e-02
    x[1,4]    findWorstP[1,3]  5.9041920484446536e-02
    x[1,4]    findWorstP[2,1]  -1.2129824288198499e-01
    x[1,4]    findWorstP[3,1]  -0.0581516994581647
    x[1,5]    allocateEach[5]  1
    x[1,5]    findWorstP[1,2]  0.0160040370543921
    x[1,5]    findWorstP[1,3]  0.0160040370543921
    x[1,5]    findWorstP[2,1]  -4.7133328142438161e-02
    x[1,5]    findWorstP[3,1]  -5.1196583046543016e-02
    x[1,6]    allocateEach[6]  1
    x[1,6]    findWorstP[1,2]  8.1930577082507311e-02
    x[1,6]    findWorstP[1,3]  8.1930577082507311e-02
    x[1,6]    findWorstP[2,1]  -6.1888447662799446e-02
    x[1,6]    findWorstP[3,1]  -5.9212282562426513e-02
    x[1,7]    allocateEach[7]  1
    x[1,7]    findWorstP[1,2]  6.4782107198212174e-02
    x[1,7]    findWorstP[1,3]  6.4782107198212174e-02
    x[1,7]    findWorstP[2,1]  -8.1146668743024730e-02
    x[1,7]    findWorstP[3,1]  -4.7271704075669371e-02
    x[1,8]    allocateEach[8]  1
    x[1,8]    findWorstP[1,2]  7.1810907255884376e-02
    x[1,8]    findWorstP[1,3]  7.1810907255884376e-02
    x[1,8]    findWorstP[2,1]  -1.8064315191154711e-02
    x[1,8]    findWorstP[3,1]  -5.4306183848834455e-02
    x[1,9]    allocateEach[9]  1
    x[1,9]    findWorstP[1,2]  1.4958728327866492e-03
    x[1,9]    findWorstP[1,3]  1.4958728327866492e-03
    x[1,9]    findWorstP[2,1]  -9.5888811025461332e-02
    x[1,9]    findWorstP[3,1]  -5.9782255795329121e-02
    x[1,10]   allocateEach[10]  1
    x[1,10]   findWorstP[1,2]  7.0963846736113625e-02
    x[1,10]   findWorstP[1,3]  7.0963846736113625e-02
    x[1,10]   findWorstP[2,1]  -1.2990215162604790e-02
    x[1,10]   findWorstP[3,1]  -3.8621097667438667e-02
    x[1,11]   allocateEach[11]  1
    x[1,11]   findWorstP[1,2]  4.4065169592329605e-03
    x[1,11]   findWorstP[1,3]  4.4065169592329605e-03
    x[1,11]   findWorstP[2,1]  -2.9549170754496611e-02
    x[1,11]   findWorstP[3,1]  -0.0416296905550385
    x[1,12]   allocateEach[12]  1
    x[1,12]   findWorstP[1,2]  8.0966369895108692e-02
    x[1,12]   findWorstP[1,3]  8.0966369895108692e-02
    x[1,12]   findWorstP[2,1]  -7.8642061823561461e-03
    x[1,12]   findWorstP[3,1]  -6.3483474383671371e-02
    x[1,13]   allocateEach[13]  1
    x[1,13]   findWorstP[1,2]  1.8923692462963633e-04
    x[1,13]   findWorstP[1,3]  1.8923692462963633e-04
    x[1,13]   findWorstP[2,1]  -2.2762075319888914e-02
    x[1,13]   findWorstP[3,1]  -6.8865753266523833e-02
    x[1,14]   allocateEach[14]  1
    x[1,14]   findWorstP[1,2]  3.0836607432505502e-02
    x[1,14]   findWorstP[1,3]  3.0836607432505502e-02
    x[1,14]   findWorstP[2,1]  -0.0847543408860858
    x[1,14]   findWorstP[3,1]  -6.7444427609792010e-02
    x[1,15]   allocateEach[15]  1
    x[1,15]   findWorstP[1,2]  5.8978841509569988e-02
    x[1,15]   findWorstP[1,3]  5.8978841509569988e-02
    x[1,15]   findWorstP[2,1]  -4.6185989773936509e-02
    x[1,15]   findWorstP[3,1]  -6.8865753266523833e-02
    x[1,16]   allocateEach[16]  1
    x[1,16]   findWorstP[1,2]  2.7277150993043297e-02
    x[1,16]   findWorstP[1,3]  2.7277150993043297e-02
    x[1,16]   findWorstP[2,1]  -1.7817747670585790e-02
    x[1,16]   findWorstP[3,1]  -6.8649307735041826e-02
    x[1,17]   allocateEach[17]  1
    x[1,17]   findWorstP[1,2]  2.3834841221208960e-02
    x[1,17]   findWorstP[1,3]  2.3834841221208960e-02
    x[1,17]   findWorstP[2,1]  -5.5218147369513866e-02
    x[1,17]   findWorstP[3,1]  -3.9732184729046278e-02
    x[1,18]   allocateEach[18]  1
    x[1,18]   findWorstP[1,2]  8.5039469415708474e-02
    x[1,18]   findWorstP[1,3]  8.5039469415708474e-02
    x[1,18]   findWorstP[2,1]  -8.0601624750188158e-02
    x[1,18]   findWorstP[3,1]  -6.6953817738432814e-02
    x[1,19]   allocateEach[19]  1
    x[1,19]   findWorstP[1,2]  0.0732076559852936
    x[1,19]   findWorstP[1,3]  0.0732076559852936
    x[1,19]   findWorstP[2,1]  -2.4306366632925847e-02
    x[1,19]   findWorstP[3,1]  -4.8390005988326379e-02
    x[2,1]    allocateEach[1]  1
    x[2,1]    findWorstP[1,2]  -0.0848322099268284
    x[2,1]    findWorstP[2,1]  6.1122790625243320e-03
    x[2,1]    findWorstP[2,3]  6.1122790625243320e-03
    x[2,1]    findWorstP[3,2]  -2.9263435856366753e-02
    x[2,2]    allocateEach[2]  1
    x[2,2]    findWorstP[1,2]  -8.7634718667772060e-02
    x[2,2]    findWorstP[2,1]  3.7633989981572320e-03
    x[2,2]    findWorstP[2,3]  3.7633989981572320e-03
    x[2,2]    findWorstP[3,2]  -2.0194368087270841e-02
    x[2,3]    allocateEach[3]  1
    x[2,3]    findWorstP[1,2]  -2.2699419673431139e-02
    x[2,3]    findWorstP[2,1]  1.0479119624179188e-01
    x[2,3]    findWorstP[2,3]  1.0479119624179188e-01
    x[2,3]    findWorstP[3,2]  -4.6968680331594568e-03
    x[2,4]    allocateEach[4]  1
    x[2,4]    findWorstP[1,2]  -5.9041920484446536e-02
    x[2,4]    findWorstP[2,1]  1.2129824288198499e-01
    x[2,4]    findWorstP[2,3]  1.2129824288198499e-01
    x[2,4]    findWorstP[3,2]  -0.0581516994581647
    x[2,5]    allocateEach[5]  1
    x[2,5]    findWorstP[1,2]  -0.0160040370543921
    x[2,5]    findWorstP[2,1]  4.7133328142438161e-02
    x[2,5]    findWorstP[2,3]  4.7133328142438161e-02
    x[2,5]    findWorstP[3,2]  -5.1196583046543016e-02
    x[2,6]    allocateEach[6]  1
    x[2,6]    findWorstP[1,2]  -8.1930577082507311e-02
    x[2,6]    findWorstP[2,1]  6.1888447662799446e-02
    x[2,6]    findWorstP[2,3]  6.1888447662799446e-02
    x[2,6]    findWorstP[3,2]  -5.9212282562426513e-02
    x[2,7]    allocateEach[7]  1
    x[2,7]    findWorstP[1,2]  -6.4782107198212174e-02
    x[2,7]    findWorstP[2,1]  8.1146668743024730e-02
    x[2,7]    findWorstP[2,3]  8.1146668743024730e-02
    x[2,7]    findWorstP[3,2]  -4.7271704075669371e-02
    x[2,8]    allocateEach[8]  1
    x[2,8]    findWorstP[1,2]  -7.1810907255884376e-02
    x[2,8]    findWorstP[2,1]  1.8064315191154711e-02
    x[2,8]    findWorstP[2,3]  1.8064315191154711e-02
    x[2,8]    findWorstP[3,2]  -5.4306183848834455e-02
    x[2,9]    allocateEach[9]  1
    x[2,9]    findWorstP[1,2]  -1.4958728327866492e-03
    x[2,9]    findWorstP[2,1]  9.5888811025461332e-02
    x[2,9]    findWorstP[2,3]  9.5888811025461332e-02
    x[2,9]    findWorstP[3,2]  -5.9782255795329121e-02
    x[2,10]   allocateEach[10]  1
    x[2,10]   findWorstP[1,2]  -7.0963846736113625e-02
    x[2,10]   findWorstP[2,1]  1.2990215162604790e-02
    x[2,10]   findWorstP[2,3]  1.2990215162604790e-02
    x[2,10]   findWorstP[3,2]  -3.8621097667438667e-02
    x[2,11]   allocateEach[11]  1
    x[2,11]   findWorstP[1,2]  -4.4065169592329605e-03
    x[2,11]   findWorstP[2,1]  2.9549170754496611e-02
    x[2,11]   findWorstP[2,3]  2.9549170754496611e-02
    x[2,11]   findWorstP[3,2]  -0.0416296905550385
    x[2,12]   allocateEach[12]  1
    x[2,12]   findWorstP[1,2]  -8.0966369895108692e-02
    x[2,12]   findWorstP[2,1]  7.8642061823561461e-03
    x[2,12]   findWorstP[2,3]  7.8642061823561461e-03
    x[2,12]   findWorstP[3,2]  -6.3483474383671371e-02
    x[2,13]   allocateEach[13]  1
    x[2,13]   findWorstP[1,2]  -1.8923692462963633e-04
    x[2,13]   findWorstP[2,1]  2.2762075319888914e-02
    x[2,13]   findWorstP[2,3]  2.2762075319888914e-02
    x[2,13]   findWorstP[3,2]  -6.8865753266523833e-02
    x[2,14]   allocateEach[14]  1
    x[2,14]   findWorstP[1,2]  -3.0836607432505502e-02
    x[2,14]   findWorstP[2,1]  0.0847543408860858
    x[2,14]   findWorstP[2,3]  0.0847543408860858
    x[2,14]   findWorstP[3,2]  -6.7444427609792010e-02
    x[2,15]   allocateEach[15]  1
    x[2,15]   findWorstP[1,2]  -5.8978841509569988e-02
    x[2,15]   findWorstP[2,1]  4.6185989773936509e-02
    x[2,15]   findWorstP[2,3]  4.6185989773936509e-02
    x[2,15]   findWorstP[3,2]  -6.8865753266523833e-02
    x[2,16]   allocateEach[16]  1
    x[2,16]   findWorstP[1,2]  -2.7277150993043297e-02
    x[2,16]   findWorstP[2,1]  1.7817747670585790e-02
    x[2,16]   findWorstP[2,3]  1.7817747670585790e-02
    x[2,16]   findWorstP[3,2]  -6.8649307735041826e-02
    x[2,17]   allocateEach[17]  1
    x[2,17]   findWorstP[1,2]  -2.3834841221208960e-02
    x[2,17]   findWorstP[2,1]  5.5218147369513866e-02
    x[2,17]   findWorstP[2,3]  5.5218147369513866e-02
    x[2,17]   findWorstP[3,2]  -3.9732184729046278e-02
    x[2,18]   allocateEach[18]  1
    x[2,18]   findWorstP[1,2]  -8.5039469415708474e-02
    x[2,18]   findWorstP[2,1]  8.0601624750188158e-02
    x[2,18]   findWorstP[2,3]  8.0601624750188158e-02
    x[2,18]   findWorstP[3,2]  -6.6953817738432814e-02
    x[2,19]   allocateEach[19]  1
    x[2,19]   findWorstP[1,2]  -0.0732076559852936
    x[2,19]   findWorstP[2,1]  2.4306366632925847e-02
    x[2,19]   findWorstP[2,3]  2.4306366632925847e-02
    x[2,19]   findWorstP[3,2]  -4.8390005988326379e-02
    x[3,1]    allocateEach[1]  1
    x[3,1]    findWorstP[1,3]  -0.0848322099268284
    x[3,1]    findWorstP[2,3]  -6.1122790625243320e-03
    x[3,1]    findWorstP[3,1]  2.9263435856366753e-02
    x[3,1]    findWorstP[3,2]  2.9263435856366753e-02
    x[3,2]    allocateEach[2]  1
    x[3,2]    findWorstP[1,3]  -8.7634718667772060e-02
    x[3,2]    findWorstP[2,3]  -3.7633989981572320e-03
    x[3,2]    findWorstP[3,1]  2.0194368087270841e-02
    x[3,2]    findWorstP[3,2]  2.0194368087270841e-02
    x[3,3]    allocateEach[3]  1
    x[3,3]    findWorstP[1,3]  -2.2699419673431139e-02
    x[3,3]    findWorstP[2,3]  -1.0479119624179188e-01
    x[3,3]    findWorstP[3,1]  4.6968680331594568e-03
    x[3,3]    findWorstP[3,2]  4.6968680331594568e-03
    x[3,4]    allocateEach[4]  1
    x[3,4]    findWorstP[1,3]  -5.9041920484446536e-02
    x[3,4]    findWorstP[2,3]  -1.2129824288198499e-01
    x[3,4]    findWorstP[3,1]  0.0581516994581647
    x[3,4]    findWorstP[3,2]  0.0581516994581647
    x[3,5]    allocateEach[5]  1
    x[3,5]    findWorstP[1,3]  -0.0160040370543921
    x[3,5]    findWorstP[2,3]  -4.7133328142438161e-02
    x[3,5]    findWorstP[3,1]  5.1196583046543016e-02
    x[3,5]    findWorstP[3,2]  5.1196583046543016e-02
    x[3,6]    allocateEach[6]  1
    x[3,6]    findWorstP[1,3]  -8.1930577082507311e-02
    x[3,6]    findWorstP[2,3]  -6.1888447662799446e-02
    x[3,6]    findWorstP[3,1]  5.9212282562426513e-02
    x[3,6]    findWorstP[3,2]  5.9212282562426513e-02
    x[3,7]    allocateEach[7]  1
    x[3,7]    findWorstP[1,3]  -6.4782107198212174e-02
    x[3,7]    findWorstP[2,3]  -8.1146668743024730e-02
    x[3,7]    findWorstP[3,1]  4.7271704075669371e-02
    x[3,7]    findWorstP[3,2]  4.7271704075669371e-02
    x[3,8]    allocateEach[8]  1
    x[3,8]    findWorstP[1,3]  -7.1810907255884376e-02
    x[3,8]    findWorstP[2,3]  -1.8064315191154711e-02
    x[3,8]    findWorstP[3,1]  5.4306183848834455e-02
    x[3,8]    findWorstP[3,2]  5.4306183848834455e-02
    x[3,9]    allocateEach[9]  1
    x[3,9]    findWorstP[1,3]  -1.4958728327866492e-03
    x[3,9]    findWorstP[2,3]  -9.5888811025461332e-02
    x[3,9]    findWorstP[3,1]  5.9782255795329121e-02
    x[3,9]    findWorstP[3,2]  5.9782255795329121e-02
    x[3,10]   allocateEach[10]  1
    x[3,10]   findWorstP[1,3]  -7.0963846736113625e-02
    x[3,10]   findWorstP[2,3]  -1.2990215162604790e-02
    x[3,10]   findWorstP[3,1]  3.8621097667438667e-02
    x[3,10]   findWorstP[3,2]  3.8621097667438667e-02
    x[3,11]   allocateEach[11]  1
    x[3,11]   findWorstP[1,3]  -4.4065169592329605e-03
    x[3,11]   findWorstP[2,3]  -2.9549170754496611e-02
    x[3,11]   findWorstP[3,1]  0.0416296905550385
    x[3,11]   findWorstP[3,2]  0.0416296905550385
    x[3,12]   allocateEach[12]  1
    x[3,12]   findWorstP[1,3]  -8.0966369895108692e-02
    x[3,12]   findWorstP[2,3]  -7.8642061823561461e-03
    x[3,12]   findWorstP[3,1]  6.3483474383671371e-02
    x[3,12]   findWorstP[3,2]  6.3483474383671371e-02
    x[3,13]   allocateEach[13]  1
    x[3,13]   findWorstP[1,3]  -1.8923692462963633e-04
    x[3,13]   findWorstP[2,3]  -2.2762075319888914e-02
    x[3,13]   findWorstP[3,1]  6.8865753266523833e-02
    x[3,13]   findWorstP[3,2]  6.8865753266523833e-02
    x[3,14]   allocateEach[14]  1
    x[3,14]   findWorstP[1,3]  -3.0836607432505502e-02
    x[3,14]   findWorstP[2,3]  -0.0847543408860858
    x[3,14]   findWorstP[3,1]  6.7444427609792010e-02
    x[3,14]   findWorstP[3,2]  6.7444427609792010e-02
    x[3,15]   allocateEach[15]  1
    x[3,15]   findWorstP[1,3]  -5.8978841509569988e-02
    x[3,15]   findWorstP[2,3]  -4.6185989773936509e-02
    x[3,15]   findWorstP[3,1]  6.8865753266523833e-02
    x[3,15]   findWorstP[3,2]  6.8865753266523833e-02
    x[3,16]   allocateEach[16]  1
    x[3,16]   findWorstP[1,3]  -2.7277150993043297e-02
    x[3,16]   findWorstP[2,3]  -1.7817747670585790e-02
    x[3,16]   findWorstP[3,1]  6.8649307735041826e-02
    x[3,16]   findWorstP[3,2]  6.8649307735041826e-02
    x[3,17]   allocateEach[17]  1
    x[3,17]   findWorstP[1,3]  -2.3834841221208960e-02
    x[3,17]   findWorstP[2,3]  -5.5218147369513866e-02
    x[3,17]   findWorstP[3,1]  3.9732184729046278e-02
    x[3,17]   findWorstP[3,2]  3.9732184729046278e-02
    x[3,18]   allocateEach[18]  1
    x[3,18]   findWorstP[1,3]  -8.5039469415708474e-02
    x[3,18]   findWorstP[2,3]  -8.0601624750188158e-02
    x[3,18]   findWorstP[3,1]  6.6953817738432814e-02
    x[3,18]   findWorstP[3,2]  6.6953817738432814e-02
    x[3,19]   allocateEach[19]  1
    x[3,19]   findWorstP[1,3]  -0.0732076559852936
    x[3,19]   findWorstP[2,3]  -2.4306366632925847e-02
    x[3,19]   findWorstP[3,1]  4.8390005988326379e-02
    x[3,19]   findWorstP[3,2]  4.8390005988326379e-02
    MARKER    'MARKER'                 'INTEND'
RHS
    RHS1      allocateEach[1]  1
    RHS1      allocateEach[2]  1
    RHS1      allocateEach[3]  1
    RHS1      allocateEach[4]  1
    RHS1      allocateEach[5]  1
    RHS1      allocateEach[6]  1
    RHS1      allocateEach[7]  1
    RHS1      allocateEach[8]  1
    RHS1      allocateEach[9]  1
    RHS1      allocateEach[10]  1
    RHS1      allocateEach[11]  1
    RHS1      allocateEach[12]  1
    RHS1      allocateEach[13]  1
    RHS1      allocateEach[14]  1
    RHS1      allocateEach[15]  1
    RHS1      allocateEach[16]  1
    RHS1      allocateEach[17]  1
    RHS1      allocateEach[18]  1
    RHS1      allocateEach[19]  1
    RHS1      allocateAllCash  1
BOUNDS
 UP BND1      z         1
 MI BND1      cashProportion[1]
 UP BND1      cashProportion[1]  1
 MI BND1      cashProportion[2]
 UP BND1      cashProportion[2]  1
 MI BND1      cashProportion[3]
 UP BND1      cashProportion[3]  1
 BV BND1      x[1,1]  
 BV BND1      x[1,2]  
 BV BND1      x[1,3]  
 BV BND1      x[1,4]  
 BV BND1      x[1,5]  
 BV BND1      x[1,6]  
 BV BND1      x[1,7]  
 BV BND1      x[1,8]  
 BV BND1      x[1,9]  
 BV BND1      x[1,10] 
 BV BND1      x[1,11] 
 BV BND1      x[1,12] 
 BV BND1      x[1,13] 
 BV BND1      x[1,14] 
 BV BND1      x[1,15] 
 BV BND1      x[1,16] 
 BV BND1      x[1,17] 
 BV BND1      x[1,18] 
 BV BND1      x[1,19] 
 BV BND1      x[2,1]  
 BV BND1      x[2,2]  
 BV BND1      x[2,3]  
 BV BND1      x[2,4]  
 BV BND1      x[2,5]  
 BV BND1      x[2,6]  
 BV BND1      x[2,7]  
 BV BND1      x[2,8]  
 BV BND1      x[2,9]  
 BV BND1      x[2,10] 
 BV BND1      x[2,11] 
 BV BND1      x[2,12] 
 BV BND1      x[2,13] 
 BV BND1      x[2,14] 
 BV BND1      x[2,15] 
 BV BND1      x[2,16] 
 BV BND1      x[2,17] 
 BV BND1      x[2,18] 
 BV BND1      x[2,19] 
 BV BND1      x[3,1]  
 BV BND1      x[3,2]  
 BV BND1      x[3,3]  
 BV BND1      x[3,4]  
 BV BND1      x[3,5]  
 BV BND1      x[3,6]  
 BV BND1      x[3,7]  
 BV BND1      x[3,8]  
 BV BND1      x[3,9]  
 BV BND1      x[3,10] 
 BV BND1      x[3,11] 
 BV BND1      x[3,12] 
 BV BND1      x[3,13] 
 BV BND1      x[3,14] 
 BV BND1      x[3,15] 
 BV BND1      x[3,16] 
 BV BND1      x[3,17] 
 BV BND1      x[3,18] 
 BV BND1      x[3,19] 
ENDATA
